24 4
23 75 56 92 85 14 30 69 37 11 58 91 74 97 18 20 98 32 57 97 75 72 26 37
59 55 54 39 34 58 83 34 30 79 100 77 40 38 38 35 96 11 25 81 60 33 22 72
85 21 50 69 53 47 93 98 100 23 59 87 84 38 73 24 95 65 65 83 46 84 65 18
75 11 21 54 16 85 77 92 19 88 78 38 59 40 98 98 77 46 87 66 32 88 24 13
